(declare-const c_0 Real)
(declare-const c_1 Real)
(declare-const c_2 Real)
(declare-const c_3 Real)
(declare-const c_4 Real)
(declare-const c_5 Real)
(declare-const c_6 Real)
(declare-const c_7 Real)
(declare-const c_8 Real)
(declare-const c_9 Real)
(declare-const c_10 Real)
(declare-const c_11 Real)
(declare-const c_12 Real)
(declare-const c_13 Real)
(declare-const c_14 Real)
(declare-const c_15 Real)
(declare-const s_0 Real)
(declare-const s_1 Real)
(declare-const s_2 Real)
(declare-const s_3 Real)
(declare-const s_4 Real)
(declare-const s_5 Real)
(declare-const s_6 Real)
(declare-const s_7 Real)
(declare-const s_8 Real)
(declare-const s_9 Real)
(declare-const s_10 Real)
(declare-const s_11 Real)
(declare-const s_12 Real)
(declare-const s_13 Real)
(declare-const s_14 Real)
(declare-const s_15 Real)
(assert (forall ((x Real) (y Real) (m Real) ) (=> (and (>= (+ (* 1024 1) (* 1 x ) ) 0) (>= (+ (* 1023 1) (* (- 1) x ) ) 0) (>= (+ (* 1024 1) (* 1 y ) ) 0) (>= (+ (* 1023 1) (* (- 1) y ) ) 0) (>= (+ (* 1024 1) (* 1 m ) ) 0) (>= (+ (* 1023 1) (* (- 1) m ) ) 0) ) (>= (+ (* 1 m s_1 ) (* 1 s_0 ) (* 1 s_2 x ) (* 1 s_3 y ) ) 0) )))
(assert (forall ((x Real) (y Real) (m Real) ) (=> (and (>= (+ (* 1024 1) (* 1 x ) ) 0) (>= (+ (* 1023 1) (* (- 1) x ) ) 0) (>= (+ (* 1024 1) (* 1 y ) ) 0) (>= (+ (* 1023 1) (* (- 1) y ) ) 0) (>= (+ (* 1024 1) (* 1 m ) ) 0) (>= (+ (* 1023 1) (* (- 1) m ) ) 0) ) (>= (+ (* 1 c_0 ) (* 1 c_1 m ) (* 1 c_2 x ) (* 1 c_3 y ) ) 0) )))
(assert (forall ((x Real) (y Real) (m Real) ) (=> (and (>= (+ (* 1023 1) (* (- 1) m ) ) 0) (>= (+ (* 1024 1) (* 1 m ) ) 0) (>= (+ (* 1023 1) (* (- 1) y ) ) 0) (>= (+ (* 1024 1) (* 1 y ) ) 0) (>= (+ (* 1023 1) (* (- 1) x ) ) 0) (>= (+ (* 1024 1) (* 1 x ) ) 0) (>= (+ (* 1 m s_1 ) (* 1 s_0 ) (* 1 s_2 x ) (* 1 s_3 y ) ) 0) ) (>= (+ (* 1 m s_10 ) (* 1 m s_9 ) (* 1 s_8 ) ) 0) )))
(assert (forall ((x Real) (y Real) (m Real) ) (=> (and (>= (+ (* 1023 1) (* (- 1) m ) ) 0) (>= (+ (* 1024 1) (* 1 m ) ) 0) (>= (+ (* 1023 1) (* (- 1) y ) ) 0) (>= (+ (* 1024 1) (* 1 y ) ) 0) (>= (+ (* 1023 1) (* (- 1) x ) ) 0) (>= (+ (* 1024 1) (* 1 x ) ) 0) (>= (+ (* 1 m s_1 ) (* 1 s_0 ) (* 1 s_2 x ) (* 1 s_3 y ) ) 0) ) (>= (+ (* 1 c_10 m ) (* 1 c_8 ) (* 1 c_9 m ) ) 0) )))
(assert (forall ((x Real) (y Real) (m Real) ) (=> (and (>= (+ (* 1023 1) (* (- 1) m ) ) 0) (>= (+ (* 1024 1) (* 1 m ) ) 0) (>= (+ (* 1023 1) (* (- 1) y ) ) 0) (>= (+ (* 1024 1) (* 1 y ) ) 0) (>= (+ (* 1023 1) (* (- 1) x ) ) 0) (>= (+ (* 1024 1) (* 1 x ) ) 0) (>= (+ (* 1 m s_1 ) (* 1 s_0 ) (* 1 s_2 x ) (* 1 s_3 y ) ) 0) ) (>= (+ (* (- 1) 1) (* 1 c_0 ) (* 1 c_1 m ) (* (- 1) c_10 m ) (* 1 c_2 x ) (* 1 c_3 y ) (* (- 1) c_8 ) (* (- 1) c_9 m ) ) 0) )))
(assert (forall ((x Real) (y Real) (m Real) ) (=> (and (>= (+ (* 1 m ) (* (- 1) y ) ) 0) (>= (+ (* 1023 1) (* (- 1) m ) ) 0) (>= (* 1 y ) 0) (>= (* 1 x ) 0) (>= (+ (* 1 m ) (* (- 1) x ) ) 0) (>= (+ (* 1 m s_5 ) (* 1 s_4 ) (* 1 s_6 x ) (* 1 s_7 y ) ) 0) ) (>= (+ (* 1 m s_5 ) (* 1 s_4 ) (* 1 s_6 x ) (* 1 s_7 ) (* 1 s_7 y ) ) 0) )))
(assert (forall ((x Real) (y Real) (m Real) ) (=> (and (>= (+ (* 1 m ) (* (- 1) y ) ) 0) (>= (+ (* 1023 1) (* (- 1) m ) ) 0) (>= (* 1 y ) 0) (>= (* 1 x ) 0) (>= (+ (* 1 m ) (* (- 1) x ) ) 0) (>= (+ (* 1 m s_5 ) (* 1 s_4 ) (* 1 s_6 x ) (* 1 s_7 y ) ) 0) ) (>= (+ (* 1 c_4 ) (* 1 c_5 m ) (* 1 c_6 x ) (* 1 c_7 ) (* 1 c_7 y ) ) 0) )))
(assert (forall ((x Real) (y Real) (m Real) ) (=> (and (>= (+ (* 1 m ) (* (- 1) y ) ) 0) (>= (+ (* 1023 1) (* (- 1) m ) ) 0) (>= (* 1 y ) 0) (>= (* 1 x ) 0) (>= (+ (* 1 m ) (* (- 1) x ) ) 0) (>= (+ (* 1 m s_5 ) (* 1 s_4 ) (* 1 s_6 x ) (* 1 s_7 y ) ) 0) ) (>= (+ (* (- 1) 1) (* (- 1) c_7 ) ) 0) )))
(assert (forall ((x Real) (y Real) (m Real) ) (=> (and (>= (+ (* (- 1) 1) (* (- 1) m ) (* 1 y ) ) 0) (>= (+ (* 1023 1) (* (- 1) m ) ) 0) (>= (* 1 y ) 0) (>= (* 1 x ) 0) (>= (+ (* 1 m ) (* (- 1) x ) ) 0) (>= (+ (* 1 m s_5 ) (* 1 s_4 ) (* 1 s_6 x ) (* 1 s_7 y ) ) 0) ) (>= (+ (* 1 m s_9 ) (* (- 1) s_10 ) (* 1 s_10 x ) (* (- 1) s_11 ) (* 1 s_11 y ) (* 1 s_8 ) ) 0) )))
(assert (forall ((x Real) (y Real) (m Real) ) (=> (and (>= (+ (* (- 1) 1) (* (- 1) m ) (* 1 y ) ) 0) (>= (+ (* 1023 1) (* (- 1) m ) ) 0) (>= (* 1 y ) 0) (>= (* 1 x ) 0) (>= (+ (* 1 m ) (* (- 1) x ) ) 0) (>= (+ (* 1 m s_5 ) (* 1 s_4 ) (* 1 s_6 x ) (* 1 s_7 y ) ) 0) ) (>= (+ (* (- 1) c_10 ) (* 1 c_10 x ) (* (- 1) c_11 ) (* 1 c_11 y ) (* 1 c_8 ) (* 1 c_9 m ) ) 0) )))
(assert (forall ((x Real) (y Real) (m Real) ) (=> (and (>= (+ (* (- 1) 1) (* (- 1) m ) (* 1 y ) ) 0) (>= (+ (* 1023 1) (* (- 1) m ) ) 0) (>= (* 1 y ) 0) (>= (* 1 x ) 0) (>= (+ (* 1 m ) (* (- 1) x ) ) 0) (>= (+ (* 1 m s_5 ) (* 1 s_4 ) (* 1 s_6 x ) (* 1 s_7 y ) ) 0) ) (>= (+ (* (- 1) 1) (* 1 c_10 ) (* (- 1) c_10 x ) (* 1 c_11 ) (* (- 1) c_11 y ) (* 1 c_4 ) (* 1 c_5 m ) (* 1 c_6 x ) (* 1 c_7 y ) (* (- 1) c_8 ) (* (- 1) c_9 m ) ) 0) )))
(assert (forall ((x Real) (y Real) (m Real) ) (=> (and (>= (+ (* 1023 1) (* (- 1) m ) ) 0) (>= (* 1 y ) 0) (>= (* 1 x ) 0) (>= (+ (* 1 m ) (* (- 1) x ) ) 0) (>= (+ (* 1 m s_5 ) (* 1 s_4 ) (* 1 s_6 x ) (* 1 s_7 y ) ) 0) ) (>= (+ (* 1 m s_9 ) (* (- 1) s_10 ) (* 1 s_10 x ) (* (- 1) s_11 ) (* 1 s_11 y ) (* 1 s_8 ) ) 0) )))
(assert (forall ((x Real) (y Real) (m Real) ) (=> (and (>= (+ (* 1023 1) (* (- 1) m ) ) 0) (>= (* 1 y ) 0) (>= (* 1 x ) 0) (>= (+ (* 1 m ) (* (- 1) x ) ) 0) (>= (+ (* 1 m s_5 ) (* 1 s_4 ) (* 1 s_6 x ) (* 1 s_7 y ) ) 0) ) (>= (+ (* (- 1) c_10 ) (* 1 c_10 x ) (* (- 1) c_11 ) (* 1 c_11 y ) (* 1 c_8 ) (* 1 c_9 m ) ) 0) )))
(assert (forall ((x Real) (y Real) (m Real) ) (=> (and (>= (+ (* 1023 1) (* (- 1) m ) ) 0) (>= (* 1 y ) 0) (>= (* 1 x ) 0) (>= (+ (* 1 m ) (* (- 1) x ) ) 0) (>= (+ (* 1 m s_5 ) (* 1 s_4 ) (* 1 s_6 x ) (* 1 s_7 y ) ) 0) ) (>= (+ (* (- 1) 1) (* 1 c_10 ) (* (- 1) c_10 x ) (* 1 c_11 ) (* (- 1) c_11 y ) (* 1 c_4 ) (* 1 c_5 m ) (* 1 c_6 x ) (* 1 c_7 y ) (* (- 1) c_8 ) (* (- 1) c_9 m ) ) 0) )))
(assert (forall ((x Real) (y Real) (m Real) ) (=> (and (>= (* 1 x ) 0) (>= (* 1 y ) 0) (>= (+ (* 1 m ) (* (- 1) x ) ) 0) (>= (+ (* 1023 1) (* (- 1) m ) ) 0) (>= (+ (* 1 1) (* 1 y ) ) 0) (>= (+ (* 1024 1) (* 1 m ) (* 1024 y ) ) 0) (>= (+ (* 1 m s_9 ) (* 1 s_10 x ) (* 1 s_11 y ) (* 1 s_8 ) ) 0) ) (>= (+ (* 1 m s_5 ) (* 1 s_4 ) (* 1 s_6 x ) (* 1 s_7 y ) ) 0) )))
(assert (forall ((x Real) (y Real) (m Real) ) (=> (and (>= (* 1 x ) 0) (>= (* 1 y ) 0) (>= (+ (* 1 m ) (* (- 1) x ) ) 0) (>= (+ (* 1023 1) (* (- 1) m ) ) 0) (>= (+ (* 1 1) (* 1 y ) ) 0) (>= (+ (* 1024 1) (* 1 m ) (* 1024 y ) ) 0) (>= (+ (* 1 m s_9 ) (* 1 s_10 x ) (* 1 s_11 y ) (* 1 s_8 ) ) 0) ) (>= (+ (* 1 c_4 ) (* 1 c_5 m ) (* 1 c_6 x ) (* 1 c_7 y ) ) 0) )))
(assert (forall ((x Real) (y Real) (m Real) ) (=> (and (>= (* 1 x ) 0) (>= (* 1 y ) 0) (>= (+ (* 1 m ) (* (- 1) x ) ) 0) (>= (+ (* 1023 1) (* (- 1) m ) ) 0) (>= (+ (* 1 1) (* 1 y ) ) 0) (>= (+ (* 1024 1) (* 1 m ) (* 1024 y ) ) 0) (>= (+ (* 1 m s_9 ) (* 1 s_10 x ) (* 1 s_11 y ) (* 1 s_8 ) ) 0) ) (>= (+ (* (- 1) 1) (* 1 c_10 x ) (* 1 c_11 y ) (* (- 1) c_4 ) (* (- 1) c_5 m ) (* (- 1) c_6 x ) (* (- 1) c_7 y ) (* 1 c_8 ) (* 1 c_9 m ) ) 0) )))
(assert (forall ((x Real) (y Real) (m Real) ) (=> (and (>= (* 1 x ) 0) (>= (* 1 y ) 0) (>= (+ (* 1 m ) (* (- 1) x ) ) 0) (>= (+ (* 1023 1) (* (- 1) m ) ) 0) (>= (+ (* 1 1) (* 1 y ) ) 0) (>= (+ (* 1024 1) (* 1 m ) (* 1024 y ) ) 0) (>= (+ (* 1 m s_9 ) (* 1 s_10 x ) (* 1 s_11 y ) (* 1 s_8 ) ) 0) ) (>= (+ (* 1 m s_9 ) (* 1 s_10 x ) (* (- 1) s_11 ) (* 1 s_11 y ) (* 1 s_8 ) ) 0) )))
(assert (forall ((x Real) (y Real) (m Real) ) (=> (and (>= (* 1 x ) 0) (>= (* 1 y ) 0) (>= (+ (* 1 m ) (* (- 1) x ) ) 0) (>= (+ (* 1023 1) (* (- 1) m ) ) 0) (>= (+ (* 1 1) (* 1 y ) ) 0) (>= (+ (* 1024 1) (* 1 m ) (* 1024 y ) ) 0) (>= (+ (* 1 m s_9 ) (* 1 s_10 x ) (* 1 s_11 y ) (* 1 s_8 ) ) 0) ) (>= (+ (* 1 c_10 x ) (* (- 1) c_11 ) (* 1 c_11 y ) (* 1 c_8 ) (* 1 c_9 m ) ) 0) )))
(assert (forall ((x Real) (y Real) (m Real) ) (=> (and (>= (* 1 x ) 0) (>= (* 1 y ) 0) (>= (+ (* 1 m ) (* (- 1) x ) ) 0) (>= (+ (* 1023 1) (* (- 1) m ) ) 0) (>= (+ (* 1 1) (* 1 y ) ) 0) (>= (+ (* 1024 1) (* 1 m ) (* 1024 y ) ) 0) (>= (+ (* 1 m s_9 ) (* 1 s_10 x ) (* 1 s_11 y ) (* 1 s_8 ) ) 0) ) (>= (+ (* (- 1) 1) (* 1 c_11 ) ) 0) )))
(assert (forall ((x Real) (y Real) (m Real) ) (=> (and (>= (+ (* (- 1) 1) (* (- 1) x ) ) 0) (>= (+ (* 1 m ) (* (- 1) x ) ) 0) (>= (+ (* 1023 1) (* (- 1) m ) ) 0) (>= (+ (* 1 1) (* 1 y ) ) 0) (>= (+ (* 1024 1) (* 1 m ) (* 1024 y ) ) 0) (>= (+ (* 1 m s_9 ) (* 1 s_10 x ) (* 1 s_11 y ) (* 1 s_8 ) ) 0) ) (>= (+ (* 1 m s_13 ) (* 1 s_12 ) (* 1 s_14 x ) (* 1 s_15 y ) ) 0) )))
(assert (forall ((x Real) (y Real) (m Real) ) (=> (and (>= (+ (* (- 1) 1) (* (- 1) x ) ) 0) (>= (+ (* 1 m ) (* (- 1) x ) ) 0) (>= (+ (* 1023 1) (* (- 1) m ) ) 0) (>= (+ (* 1 1) (* 1 y ) ) 0) (>= (+ (* 1024 1) (* 1 m ) (* 1024 y ) ) 0) (>= (+ (* 1 m s_9 ) (* 1 s_10 x ) (* 1 s_11 y ) (* 1 s_8 ) ) 0) ) (>= (+ (* 1 c_12 ) (* 1 c_13 m ) (* 1 c_14 x ) (* 1 c_15 y ) ) 0) )))
(assert (forall ((x Real) (y Real) (m Real) ) (=> (and (>= (+ (* (- 1) 1) (* (- 1) y ) ) 0) (>= (+ (* 1 m ) (* (- 1) x ) ) 0) (>= (+ (* 1023 1) (* (- 1) m ) ) 0) (>= (+ (* 1 1) (* 1 y ) ) 0) (>= (+ (* 1024 1) (* 1 m ) (* 1024 y ) ) 0) (>= (+ (* 1 m s_9 ) (* 1 s_10 x ) (* 1 s_11 y ) (* 1 s_8 ) ) 0) ) (>= (+ (* 1 m s_13 ) (* 1 s_12 ) (* 1 s_14 x ) (* 1 s_15 y ) ) 0) )))
(assert (forall ((x Real) (y Real) (m Real) ) (=> (and (>= (+ (* (- 1) 1) (* (- 1) y ) ) 0) (>= (+ (* 1 m ) (* (- 1) x ) ) 0) (>= (+ (* 1023 1) (* (- 1) m ) ) 0) (>= (+ (* 1 1) (* 1 y ) ) 0) (>= (+ (* 1024 1) (* 1 m ) (* 1024 y ) ) 0) (>= (+ (* 1 m s_9 ) (* 1 s_10 x ) (* 1 s_11 y ) (* 1 s_8 ) ) 0) ) (>= (+ (* 1 c_12 ) (* 1 c_13 m ) (* 1 c_14 x ) (* 1 c_15 y ) ) 0) )))

(check-sat)
(get-model)
